12600 8510 3 5 6 8 9 10 11 12 13 15 16 19 20 21 22 24 25 26 27 28 29 31 32 33 34 35 36 37 38 39 40 41 42 43 44 45 46 48 51 54 55 56 57 58 59 62 63 64 65 66 67 68 70 71 72 75 77 78 79 81 82 83 86 87 89 90 92 94 95 96 97 98 99 100 101 104 105 106 107 108 109 110 111 112 114 116 117 118 119 120 123 124 126 127 128 129 130 131 132 133 134 135 136 137 138 139 140 141 142 143 144 145 146 147 148 149 151 152 153 154 155 156 157 158 159 160 161 162 163 164 165 166 167 168 169 170 171 172 173 174 175 176 177 178 179 181 182 184 185 186 187 188 189 190 191 192 193 194 196 198 199 201 202 203 204 205 206 207 208 209 210 211 212 213 214 216 217 218 220 221 222 224 225 227 229 230 231 232 233 234 235 236 238 239 240 241 242 243 244 245 246 248 249 250 251 253 254 256 257 258 259 260 262 263 265 266 267 268 269 270 271 272 273 274 275 276 277 278 279 280 281 282 283 284 285 287 288 289 290 292 293 294 295 296 297 298 301 302 303 304 305 306 307 308 309 310 311 312 313 315 316 317 318 319 320 321 324 325 326 327 329 332 333 334 335 337 338 339 340 341 342 344 345 346 347 348 349 350 352 353 355 356 358 359 360 361 363 365 366 367 368 369 370 371 372 373 376 377 378 379 380 381 382 384 386 387 389 390 391 392 393 394 395 396 397 398 399 400 401 402 403 404 405 406 407 408 409 410 412 413 414 416 417 418 421 422 423 426 427 428 429 430 431 432 433 434 435 436 437 440 441 442 443 444 446 447 448 449 451 452 453 454 455 456 457 459 461 463 464 465 466 467 469 470 471 472 473 475 476 477 478 479 480 481 483 484 485 488 489 490 491 492 493 495 496 497 498 499 500 